15
1 0 9
2 0 3
2 1 10
3 0 21
3 1 11
3 2 19
4 0 23
4 1 2
4 2 19
4 3 20
5 0 3
5 1 16
5 2 10
5 3 19
5 4 11
6 0 2
6 1 3
6 2 4
6 3 4
6 4 16
6 5 21
7 0 17
7 1 25
7 2 19
7 3 22
7 4 15
7 5 18
7 6 23
8 0 16
8 1 9
8 2 13
8 3 19
8 4 24
8 5 24
8 6 3
8 7 9
9 0 11
9 1 14
9 2 8
9 3 3
9 4 25
9 5 2
9 6 7
9 7 6
9 8 7
10 0 15
10 1 3
10 2 9
10 3 14
10 4 18
10 5 2
10 6 14
10 7 17
10 8 25
10 9 1
11 0 10
11 1 6
11 2 23
11 3 5
11 4 15
11 5 10
11 6 12
11 7 14
11 8 18
11 9 3
11 10 15
12 0 16
12 1 4
12 2 13
12 3 14
12 4 9
12 5 19
12 6 14
12 7 18
12 8 6
12 9 1
12 10 9
12 11 20
13 0 7
13 1 18
13 2 10
13 3 11
13 4 1
13 5 7
13 6 11
13 7 17
13 8 11
13 9 7
13 10 2
13 11 23
13 12 17
14 0 12
14 1 15
14 2 1
14 3 19
14 4 22
14 5 13
14 6 11
14 7 14
14 8 5
14 9 5
14 10 3
14 11 3
14 12 21
14 13 20
